(set-logic QF_NRA)
(set-info :source |Benchmarks generated from hycomp (https://es-static.fbk.eu/tools/hycomp/). BMC instances of non-linear hybrid automata taken from: Alessandro Cimatti, Sergio Mover, Stefano Tonetta, A quantifier-free SMT encoding of non-linear hybrid automata, FMCAD 2012 and Alessandro Cimatti, Sergio Mover, Stefano Tonetta, Quantier-free encoding of invariants for Hybrid Systems, Formal Methods in System Design. This instance solves a BMC problem of depth 0 and uses the quantifier free encoding with lemmas encoding. Contacts: Sergio Mover (mover@fbk.eu), Stefano Tonetta (tonettas@fbk.eu), Alessandro Cimatti (cimatti@fbk.eu).|)
(set-info :smt-lib-version 2.0)
(set-info :category "industrial")
(set-info :status unsat)
;; MathSAT API call trace
;; generated on Mon Mar 19 10:50:04 2012
(declare-fun b.counter.0__AT0 () Bool)
(declare-fun b.counter.1__AT0 () Bool)
(declare-fun b.counter.2__AT0 () Bool)
(declare-fun b.delta__AT0 () Real)
(declare-fun b.EVENT.0__AT0 () Bool)
(declare-fun b.EVENT.1__AT0 () Bool)
(declare-fun b.speed_loss__AT0 () Real)
(declare-fun b.counter.3__AT0 () Bool)
(declare-fun b.x__AT0 () Real)
(declare-fun b.speed_y__AT0 () Real)
(declare-fun b.event_is_timed__AT0 () Bool)
(declare-fun b.speed_x__AT0 () Real)
(declare-fun b.time__AT0 () Real)
(declare-fun b.y__AT0 () Real)
(assert (let ((.def_80 (* (- (/ 49 10)) b.speed_y__AT0)))
(let ((.def_111 (* 3.0 .def_80)))
(let ((.def_275 (* (- 1.0) .def_111)))
(let ((.def_297 (* 2.0 .def_275)))
(let ((.def_339 (* (- 1.0) .def_297)))
(let ((.def_340 (* b.delta__AT0 .def_339)))
(let ((.def_341 (* (- 50.0) .def_340)))
(let ((.def_85 (* b.speed_y__AT0 b.speed_y__AT0)))
(let ((.def_174 (* (- 50.0) .def_85)))
(let ((.def_345 (+ .def_174 .def_341)))
(let ((.def_71 (* b.delta__AT0 b.delta__AT0)))
(let ((.def_172 (* (- 7203.0) .def_71)))
(let ((.def_346 (+ .def_172 .def_345)))
(let ((.def_177 (* 490.0 b.y__AT0)))
(let ((.def_347 (+ .def_177 .def_346)))
(let ((.def_350 (<= 0.0 .def_347)))
(let ((.def_357 (not .def_350)))
(let ((.def_186 (* (- 5.0) .def_85)))
(let ((.def_187 (* 49.0 b.y__AT0)))
(let ((.def_189 (+ .def_187 .def_186)))
(let ((.def_200 (<= 0.0 .def_189)))
(let ((.def_358 (or .def_200 .def_357)))
(let ((.def_348 (<= .def_347 0.0 )))
(let ((.def_190 (<= .def_189 0.0 )))
(let ((.def_191 (not .def_190)))
(let ((.def_356 (or .def_191 .def_348)))
(let ((.def_359 (and .def_356 .def_358)))
(let ((.def_231 (<= 0.0 b.speed_y__AT0)))
(let ((.def_232 (not .def_231)))
(let ((.def_217 (* (- 49.0) b.delta__AT0)))
(let ((.def_218 (* 5.0 b.speed_y__AT0)))
(let ((.def_220 (+ .def_218 .def_217)))
(let ((.def_229 (<= 0.0 .def_220)))
(let ((.def_230 (not .def_229)))
(let ((.def_233 (or .def_230 .def_232)))
(let ((.def_234 (not .def_233)))
(let ((.def_360 (or .def_234 .def_359)))
(let ((.def_352 (not .def_348)))
(let ((.def_353 (or .def_190 .def_352)))
(let ((.def_201 (not .def_200)))
(let ((.def_351 (or .def_201 .def_350)))
(let ((.def_354 (and .def_351 .def_353)))
(let ((.def_221 (<= .def_220 0.0 )))
(let ((.def_222 (not .def_221)))
(let ((.def_214 (<= b.speed_y__AT0 0.0 )))
(let ((.def_215 (not .def_214)))
(let ((.def_223 (or .def_215 .def_222)))
(let ((.def_224 (not .def_223)))
(let ((.def_355 (or .def_224 .def_354)))
(let ((.def_361 (and .def_355 .def_360)))
(let ((.def_349 (and .def_190 .def_348)))
(let ((.def_362 (and .def_349 .def_361)))
(let ((.def_243 (and .def_229 .def_231)))
(let ((.def_240 (or .def_230 .def_231)))
(let ((.def_239 (or .def_215 .def_221)))
(let ((.def_241 (and .def_239 .def_240)))
(let ((.def_244 (and .def_241 .def_243)))
(let ((.def_238 (and .def_214 .def_221)))
(let ((.def_242 (and .def_238 .def_241)))
(let ((.def_245 (or .def_242 .def_244)))
(let ((.def_363 (and .def_245 .def_362)))
(let ((.def_298 (* b.delta__AT0 .def_297)))
(let ((.def_299 (* 50.0 .def_298)))
(let ((.def_303 (+ .def_174 .def_299)))
(let ((.def_304 (+ .def_172 .def_303)))
(let ((.def_305 (+ .def_177 .def_304)))
(let ((.def_316 (<= .def_305 0.0 )))
(let ((.def_317 (not .def_316)))
(let ((.def_333 (or .def_190 .def_317)))
(let ((.def_306 (<= 0.0 .def_305)))
(let ((.def_332 (or .def_201 .def_306)))
(let ((.def_334 (and .def_332 .def_333)))
(let ((.def_335 (or .def_224 .def_334)))
(let ((.def_307 (not .def_306)))
(let ((.def_329 (or .def_200 .def_307)))
(let ((.def_328 (or .def_191 .def_316)))
(let ((.def_330 (and .def_328 .def_329)))
(let ((.def_331 (or .def_234 .def_330)))
(let ((.def_336 (and .def_331 .def_335)))
(let ((.def_327 (and .def_200 .def_306)))
(let ((.def_337 (and .def_327 .def_336)))
(let ((.def_338 (and .def_245 .def_337)))
(let ((.def_364 (or .def_338 .def_363)))
(let ((.def_89 (* (- (/ 49 10)) b.y__AT0)))
(let ((.def_120 (* 2.0 .def_89)))
(let ((.def_284 (* (- 1.0) .def_120)))
(let ((.def_285 (* b.delta__AT0 .def_284)))
(let ((.def_286 (* (- 50.0) .def_285)))
(let ((.def_115 (* 2.0 .def_85)))
(let ((.def_279 (* (- 1.0) .def_115)))
(let ((.def_280 (* b.delta__AT0 .def_279)))
(let ((.def_282 (* (- 25.0) .def_280)))
(let ((.def_290 (+ .def_282 .def_286)))
(let ((.def_276 (* .def_71 .def_275)))
(let ((.def_277 (* (- 50.0) .def_276)))
(let ((.def_291 (+ .def_277 .def_290)))
(let ((.def_93 (* b.y__AT0 b.speed_y__AT0)))
(let ((.def_126 (* 50.0 .def_93)))
(let ((.def_292 (+ .def_126 .def_291)))
(let ((.def_72 (* b.delta__AT0 .def_71)))
(let ((.def_124 (* 2401.0 .def_72)))
(let ((.def_293 (+ .def_124 .def_292)))
(let ((.def_128 (* 25.0 b.speed_x__AT0)))
(let ((.def_294 (+ .def_128 .def_293)))
(let ((.def_310 (<= 0.0 .def_294)))
(let ((.def_321 (not .def_310)))
(let ((.def_137 (* 2.0 .def_93)))
(let ((.def_138 (+ b.speed_x__AT0 .def_137)))
(let ((.def_139 (<= 0.0 .def_138)))
(let ((.def_322 (or .def_139 .def_321)))
(let ((.def_295 (<= .def_294 0.0 )))
(let ((.def_153 (<= .def_138 0.0 )))
(let ((.def_154 (not .def_153)))
(let ((.def_320 (or .def_154 .def_295)))
(let ((.def_323 (and .def_320 .def_322)))
(let ((.def_318 (or .def_191 .def_317)))
(let ((.def_319 (not .def_318)))
(let ((.def_324 (or .def_319 .def_323)))
(let ((.def_312 (not .def_295)))
(let ((.def_313 (or .def_153 .def_312)))
(let ((.def_140 (not .def_139)))
(let ((.def_311 (or .def_140 .def_310)))
(let ((.def_314 (and .def_311 .def_313)))
(let ((.def_308 (or .def_201 .def_307)))
(let ((.def_309 (not .def_308)))
(let ((.def_315 (or .def_309 .def_314)))
(let ((.def_325 (and .def_315 .def_324)))
(let ((.def_296 (and .def_153 .def_295)))
(let ((.def_326 (and .def_296 .def_325)))
(let ((.def_365 (and .def_326 .def_364)))
(let ((.def_166 (* 2.0 .def_111)))
(let ((.def_248 (* (- 1.0) .def_166)))
(let ((.def_249 (* b.delta__AT0 .def_248)))
(let ((.def_250 (* 50.0 .def_249)))
(let ((.def_254 (+ .def_174 .def_250)))
(let ((.def_255 (+ .def_172 .def_254)))
(let ((.def_256 (+ .def_177 .def_255)))
(let ((.def_259 (<= .def_256 0.0 )))
(let ((.def_266 (not .def_259)))
(let ((.def_267 (or .def_190 .def_266)))
(let ((.def_257 (<= 0.0 .def_256)))
(let ((.def_265 (or .def_201 .def_257)))
(let ((.def_268 (and .def_265 .def_267)))
(let ((.def_269 (or .def_224 .def_268)))
(let ((.def_261 (not .def_257)))
(let ((.def_262 (or .def_200 .def_261)))
(let ((.def_260 (or .def_191 .def_259)))
(let ((.def_263 (and .def_260 .def_262)))
(let ((.def_264 (or .def_234 .def_263)))
(let ((.def_270 (and .def_264 .def_269)))
(let ((.def_258 (and .def_200 .def_257)))
(let ((.def_271 (and .def_258 .def_270)))
(let ((.def_272 (and .def_245 .def_271)))
(let ((.def_167 (* b.delta__AT0 .def_166)))
(let ((.def_169 (* (- 50.0) .def_167)))
(let ((.def_179 (+ .def_174 .def_169)))
(let ((.def_180 (+ .def_172 .def_179)))
(let ((.def_181 (+ .def_177 .def_180)))
(let ((.def_198 (<= 0.0 .def_181)))
(let ((.def_199 (not .def_198)))
(let ((.def_227 (or .def_199 .def_200)))
(let ((.def_182 (<= .def_181 0.0 )))
(let ((.def_226 (or .def_182 .def_191)))
(let ((.def_228 (and .def_226 .def_227)))
(let ((.def_235 (or .def_228 .def_234)))
(let ((.def_183 (not .def_182)))
(let ((.def_212 (or .def_183 .def_190)))
(let ((.def_211 (or .def_198 .def_201)))
(let ((.def_213 (and .def_211 .def_212)))
(let ((.def_225 (or .def_213 .def_224)))
(let ((.def_236 (and .def_225 .def_235)))
(let ((.def_210 (and .def_182 .def_190)))
(let ((.def_237 (and .def_210 .def_236)))
(let ((.def_246 (and .def_237 .def_245)))
(let ((.def_273 (or .def_246 .def_272)))
(let ((.def_121 (* b.delta__AT0 .def_120)))
(let ((.def_122 (* 50.0 .def_121)))
(let ((.def_116 (* b.delta__AT0 .def_115)))
(let ((.def_118 (* 25.0 .def_116)))
(let ((.def_130 (+ .def_118 .def_122)))
(let ((.def_112 (* .def_71 .def_111)))
(let ((.def_114 (* 50.0 .def_112)))
(let ((.def_131 (+ .def_114 .def_130)))
(let ((.def_132 (+ .def_126 .def_131)))
(let ((.def_133 (+ .def_124 .def_132)))
(let ((.def_134 (+ .def_128 .def_133)))
(let ((.def_151 (<= .def_134 0.0 )))
(let ((.def_152 (not .def_151)))
(let ((.def_205 (or .def_152 .def_153)))
(let ((.def_135 (<= 0.0 .def_134)))
(let ((.def_204 (or .def_135 .def_140)))
(let ((.def_206 (and .def_204 .def_205)))
(let ((.def_202 (or .def_199 .def_201)))
(let ((.def_203 (not .def_202)))
(let ((.def_207 (or .def_203 .def_206)))
(let ((.def_136 (not .def_135)))
(let ((.def_195 (or .def_136 .def_139)))
(let ((.def_194 (or .def_151 .def_154)))
(let ((.def_196 (and .def_194 .def_195)))
(let ((.def_192 (or .def_183 .def_191)))
(let ((.def_193 (not .def_192)))
(let ((.def_197 (or .def_193 .def_196)))
(let ((.def_208 (and .def_197 .def_207)))
(let ((.def_165 (and .def_135 .def_139)))
(let ((.def_209 (and .def_165 .def_208)))
(let ((.def_274 (and .def_209 .def_273)))
(let ((.def_366 (or .def_274 .def_365)))
(let ((.def_94 (* b.delta__AT0 .def_93)))
(let ((.def_95 (* 200.0 .def_94)))
(let ((.def_90 (* .def_71 .def_89)))
(let ((.def_91 (* 200.0 .def_90)))
(let ((.def_101 (+ .def_91 .def_95)))
(let ((.def_86 (* .def_71 .def_85)))
(let ((.def_87 (* 100.0 .def_86)))
(let ((.def_102 (+ .def_87 .def_101)))
(let ((.def_81 (* .def_72 .def_80)))
(let ((.def_83 (* 200.0 .def_81)))
(let ((.def_103 (+ .def_83 .def_102)))
(let ((.def_73 (* b.delta__AT0 .def_72)))
(let ((.def_75 (* 2401.0 .def_73)))
(let ((.def_104 (+ .def_75 .def_103)))
(let ((.def_68 (* b.speed_x__AT0 b.delta__AT0)))
(let ((.def_70 (* 100.0 .def_68)))
(let ((.def_105 (+ .def_70 .def_104)))
(let ((.def_53 (* b.y__AT0 b.y__AT0)))
(let ((.def_97 (* 100.0 .def_53)))
(let ((.def_106 (+ .def_97 .def_105)))
(let ((.def_99 (* 100.0 b.x__AT0)))
(let ((.def_107 (+ .def_99 .def_106)))
(let ((.def_145 (<= .def_107 0.0 )))
(let ((.def_159 (not .def_145)))
(let ((.def_54 (+ b.x__AT0 .def_53)))
(let ((.def_143 (<= .def_54 0.0 )))
(let ((.def_160 (or .def_143 .def_159)))
(let ((.def_55 (<= 0.0 .def_54)))
(let ((.def_157 (not .def_55)))
(let ((.def_108 (<= 0.0 .def_107)))
(let ((.def_158 (or .def_108 .def_157)))
(let ((.def_161 (and .def_158 .def_160)))
(let ((.def_155 (or .def_152 .def_154)))
(let ((.def_156 (not .def_155)))
(let ((.def_162 (or .def_156 .def_161)))
(let ((.def_147 (not .def_108)))
(let ((.def_148 (or .def_55 .def_147)))
(let ((.def_144 (not .def_143)))
(let ((.def_146 (or .def_144 .def_145)))
(let ((.def_149 (and .def_146 .def_148)))
(let ((.def_141 (or .def_136 .def_140)))
(let ((.def_142 (not .def_141)))
(let ((.def_150 (or .def_142 .def_149)))
(let ((.def_163 (and .def_150 .def_162)))
(let ((.def_109 (and .def_55 .def_108)))
(let ((.def_164 (and .def_109 .def_163)))
(let ((.def_367 (and .def_164 .def_366)))
(let ((.def_61 (<= b.speed_loss__AT0 (/ 1 2))))
(let ((.def_58 (<= (/ 1 10) b.speed_loss__AT0)))
(let ((.def_62 (and .def_58 .def_61)))
(let ((.def_368 (and .def_62 .def_367)))
(let ((.def_63 (and .def_55 .def_62)))
(let ((.def_50 (not b.EVENT.0__AT0)))
(let ((.def_48 (not b.EVENT.1__AT0)))
(let ((.def_51 (or .def_48 .def_50)))
(let ((.def_6 (not b.counter.0__AT0)))
(let ((.def_4 (not b.counter.1__AT0)))
(let ((.def_41 (or .def_4 .def_6)))
(let ((.def_45 (or b.counter.3__AT0 .def_41)))
(let ((.def_42 (or b.counter.2__AT0 .def_41)))
(let ((.def_9 (not b.counter.2__AT0)))
(let ((.def_40 (or .def_6 .def_9)))
(let ((.def_43 (and .def_40 .def_42)))
(let ((.def_12 (not b.counter.3__AT0)))
(let ((.def_44 (or .def_12 .def_43)))
(let ((.def_46 (and .def_44 .def_45)))
(let ((.def_52 (and .def_46 .def_51)))
(let ((.def_64 (and .def_52 .def_63)))
(let ((.def_7 (and .def_4 .def_6)))
(let ((.def_10 (and .def_7 .def_9)))
(let ((.def_38 (and .def_10 .def_12)))
(let ((.def_36 (= b.speed_y__AT0 1.0 )))
(let ((.def_33 (= b.speed_x__AT0 1.0 )))
(let ((.def_29 (= b.y__AT0 10.0 )))
(let ((.def_25 (= b.x__AT0 (- 9.0) )))
(let ((.def_19 (= b.time__AT0 0.0 )))
(let ((.def_21 (and .def_19 b.event_is_timed__AT0)))
(let ((.def_26 (and .def_21 .def_25)))
(let ((.def_30 (and .def_26 .def_29)))
(let ((.def_34 (and .def_30 .def_33)))
(let ((.def_37 (and .def_34 .def_36)))
(let ((.def_39 (and .def_37 .def_38)))
(let ((.def_65 (and .def_39 .def_64)))
(let ((.def_14 (or .def_7 b.counter.3__AT0)))
(let ((.def_13 (or .def_10 .def_12)))
(let ((.def_15 (and .def_13 .def_14)))
(let ((.def_16 (not .def_15)))
(let ((.def_66 (and .def_16 .def_65)))
(let ((.def_369 (and .def_66 .def_368)))
.def_369)))))))))))))))))))))))))))))))))))))))))))))))))))))))))))))))))))))))))))))))))))))))))))))))))))))))))))))))))))))))))))))))))))))))))))))))))))))))))))))))))))))))))))))))))))))))))))))))))))))))))))))))))))))))))))))))))))))))))))))))))))))))))))))))))))))))))))))))))))))))))))))))))))))))))
(check-sat)
(exit)
